<number of tasks>
50

<cycle time>
1000

<order strength>
0.197


<task times>
1 137
2 100
3 260
4 81
5 146
6 101
7 35
8 150
9 135
10 152
11 61
12 133
13 104
14 201
15 158
16 270
17 171
18 74
19 108
20 20
21 48
22 61
23 87
24 154
25 288
26 91
27 307
28 47
29 113
30 297
31 175
32 226
33 123
34 93
35 221
36 241
37 69
38 64
39 93
40 185
41 251
42 203
43 50
44 196
45 78
46 162
47 22
48 234
49 205
50 232

<precedence relations>
1,4
1,8
2,7
3,5
3,6
3,9
3,45
4,15
5,10
5,13
5,42
6,11
7,12
7,16
7,17
7,48
8,14
8,16
8,17
9,43
9,44
10,18
11,19
12,20
13,21
14,22
15,23
16,50
17,24
17,45
18,26
19,25
20,27
21,28
22,29
23,30
23,31
23,32
24,37
24,46
25,33
26,35
27,34
28,37
29,36
30,38
31,38
33,39
34,42
35,40
36,41
38,43
38,44
38,45
39,46
40,47
41,48
42,46
42,50
45,46
45,49

<end>
